(set-logic QF_S)
(declare-fun var_0xINPUT_67613 () String)
(assert (and (= (len var_0xINPUT_67613) 0) (= (len var_0xINPUT_67613) 0) (not (= var_0xINPUT_67613 "YY8CBEMy6Q"))))
(check-sat var_0xINPUT_67613)